WARNING: for repeatability, setting FPU to use double precision
============================[ Problem Statistics ]=============================
|                                                                             |
|  Number of variables:         26095                                         |
|  Number of clauses:            1281                                         |
|  Parse time:                   0.00 s                                       |
|                                                                             |
c ============================[ Search Statistics ]==============================
c | Conflicts |          ORIGINAL         |          LEARNT          | Progress |
c |           |    Vars  Clauses Literals |    Limit  Clauses Lit/Cl |          |
c ===============================================================================
c Switched to VSIDS.
CAREFUL: the definition is falsified in conflict 368343 at DL 32 (has happened 1 times)
c Switched to LRB.
c Switched to VSIDS.
c Switched to LRB.
c Switched to VSIDS.
c Switched to LRB.
c ===============================================================================
restarts                  : 2226
conflicts                 : 1704032        (6517 /sec)
decisions                 : 35103476       (0.00 % random) (134249 /sec)
propagations              : 250878662      (959455 /sec)
conflict literals         : 33643661       (30.10 % deleted)

conflicts w/ DIP found    : 1089557        (63.94 % of conflicts)
conflicts w/ dangerous DIP: 3              (0.00 % of conflicts)
conflicts w/ DIP-learning : 29127          (1.71 % of conflicts)
decisions on ext vars     : 668616         (1.90 % of decisions)
total ext vars            : 1733        
tried delete ext vars     : 0           
deleted ext vars          : 0           
max ext vars              : 1733        

Memory used               : 129.00 MB
CPU time                  : 261.48 s
DIP computation time      : 9.1243 s (3.49 % of total time)
ER_sel time               : 1.5776 s
ER_add time               : 0.005812 s
ER_delC time              : 0 s
ER_delV time              : 0 s
ER_sub time               : 2.0745 s
ER_stat time              : 0 s

UNSATISFIABLE
